100
100
100
99
97
96
96
96
94
94
94
93
93
93
92
91
90
90
90
89
89
88
88
83
83
82
82
81
80
80
80
79
79
79
79
78
78
78
76
74
74
73
73
71
70
69
69
68
67
67
66
65
64
63
63
63
62
59
58
58
57
56
56
56
56
53
53
53
52
51
51
50
49
48
48
48
47
46
46
45
43
42
41
41
39
39
39
38
38
38
38
38
37
37
37
36
36
33
32
32
31
31
